
Gurobi 6.5.2 (win64) logging started 07/23/16 02:53:18


Gurobi 6.5.2 (win64) logging started 07/23/16 02:53:18

Optimize a model with 22090 rows, 1460 columns and 47893 nonzeros
Coefficient statistics:
  Matrix range    [4e-06, 1e+02]
  Objective range [1e+00, 1e+00]
  Bounds range    [1e+00, 1e+00]
  RHS range       [1e+00, 7e+02]
Presolve removed 21228 rows and 148 columns
Presolve time: 0.04s
Presolved: 862 rows, 1312 columns, 5548 nonzeros
Variable types: 241 continuous, 1071 integer (1071 binary)

Root relaxation: objective 1.656266e+02, 3175 iterations, 0.12 seconds

    Nodes    |    Current Node    |     Objective Bounds      |     Work
 Expl Unexpl |  Obj  Depth IntInf | Incumbent    BestBd   Gap | It/Node Time

     0     0  165.62659    0  184          -  165.62659      -     -    0s
H    0     0                    1042.1277635  165.62659  84.1%     -    0s
     0     0  175.50433    0  161 1042.12776  175.50433  83.2%     -    0s
     0     0  175.54362    0  163 1042.12776  175.54362  83.2%     -    0s
H    0     0                     189.9693410  175.54362  7.59%     -    0s
H    0     0                     189.7630828  175.54362  7.49%     -    0s
H    0     0                     189.4578880  175.54362  7.34%     -    0s
     0     0  178.88190    0  168  189.45789  178.88190  5.58%     -    0s
     0     0  179.01144    0  170  189.45789  179.01144  5.51%     -    0s
     0     0  179.06200    0  160  189.45789  179.06200  5.49%     -    0s
     0     0  179.09428    0  162  189.45789  179.09428  5.47%     -    0s
H    0     0                     189.3301107  179.09428  5.41%     -    0s
H    0     0                     189.3075269  179.09428  5.40%     -    0s
     0     0  179.15327    0  165  189.30753  179.15327  5.36%     -    0s
     0     0  179.15327    0  166  189.30753  179.15327  5.36%     -    0s
     0     0  179.15327    0  170  189.30753  179.15327  5.36%     -    0s
H    0     0                     189.2246220  179.15327  5.32%     -    0s
     0     0  179.20383    0  169  189.22462  179.20383  5.30%     -    0s
     0     0  179.23157    0  141  189.22462  179.23157  5.28%     -    0s
     0     0  179.23157    0  142  189.22462  179.23157  5.28%     -    0s
     0     0  179.23157    0  138  189.22462  179.23157  5.28%     -    0s
     0     0  179.23157    0  146  189.22462  179.23157  5.28%     -    0s
     0     0  179.23157    0  141  189.22462  179.23157  5.28%     -    0s
H    0     0                     189.2035071  179.23157  5.27%     -    0s
     0     0  179.23157    0  141  189.20351  179.23157  5.27%     -    0s
H    0     0                     189.0671163  179.23157  5.20%     -    0s
H    0     0                     189.0024062  179.23157  5.17%     -    0s
H    0     0                     188.8527270  179.23157  5.09%     -    0s
     0     2  179.23157    0  141  188.85273  179.23157  5.09%     -    0s
H  143   122                     188.8453370  179.23157  5.09%  21.0    0s
H  271   219                     188.5711627  179.23157  4.95%  15.3    1s
H  324   246                     188.5528740  179.23157  4.94%  14.8    1s
H  352   273                     188.5320055  179.23157  4.93%  14.4    1s
H  473   367                     188.5301324  179.23157  4.93%  13.1    1s
H  639   478                     188.5301084  179.23157  4.93%  12.5    1s
H 1192   824                     188.5214545  188.29381  0.12%  17.2    2s
H 1224   798                     188.5090100  188.29381  0.11%  17.2    2s
H 1311   768                     188.5089950  188.32715  0.10%  16.9    2s
H 1423   750                     188.5081516  188.32715  0.10%  16.8    2s
H 1621   734                     188.5081367  188.33191  0.09%  16.6    3s
H 2216   727                     188.5081360  188.38361  0.07%  15.3    3s
  4309  1116  188.48685   33   26  188.50814  188.42338  0.04%  13.5    5s
H 5830  1146                     188.5081358  188.44160  0.04%  13.3    6s
H 7463   868                     188.5081355  188.46480  0.02%  13.9    7s

Cutting planes:
  Gomory: 37
  MIR: 17
  Flow cover: 8

Explored 10274 nodes (146436 simplex iterations) in 9.59 seconds
Thread count was 8 (of 8 available processors)

Optimal solution found (tolerance 1.00e-04)
Best objective 1.885081355031e+02, best bound 1.885053192996e+02, gap 0.0015%

Wrote requested result file 'H2\instance14\\Results14E_Sol6.lp'

